NAME: random-32-22085
TYPE: TSP
COMMENT: size=32 seed=22085
DIMENSION: 66
EDGE_WEIGHT_TYPE: EUC_2D
NODE_COORD_SECTION
+0 595 630
-0 595 630
+1 448 875
-1 654 806
+2 161 891
-2 957 288
+3 723 909
-3 435 149
+4 961 975
-4 251 48
+5 415 316
-5 736 789
+6 111 166
-6 358 303
+7 371 680
-7 957 259
+8 508 639
-8 218 702
+9 978 530
-9 326 789
+10 810 867
-10 932 421
+11 189 890
-11 377 649
+12 256 559
-12 669 155
+13 783 303
-13 482 631
+14 172 532
-14 937 716
+15 957 736
-15 571 925
+16 602 382
-16 626 739
+17 23 989
-17 804 884
+18 982 998
-18 272 911
+19 48 978
-19 879 42
+20 321 94
-20 15 597
+21 720 334
-21 352 400
+22 104 602
-22 930 500
+23 381 225
-23 982 209
+24 160 797
-24 521 309
+25 283 794
-25 114 494
+26 727 702
-26 558 82
+27 449 664
-27 712 313
+28 516 738
-28 22 718
+29 454 309
-29 32 660
+30 277 937
-30 788 277
+31 904 908
-31 294 244
+32 745 6
-32 987 225
PRECEDENCE_SECTION
+0 -0
+1 -1
+2 -2
+3 -3
+4 -4
+5 -5
+6 -6
+7 -7
+8 -8
+9 -9
+10 -10
+11 -11
+12 -12
+13 -13
+14 -14
+15 -15
+16 -16
+17 -17
+18 -18
+19 -19
+20 -20
+21 -21
+22 -22
+23 -23
+24 -24
+25 -25
+26 -26
+27 -27
+28 -28
+29 -29
+30 -30
+31 -31
+32 -32
EOF
